
n_res = 6;
rcap = [102, 103, 92, 100, 832, 859];
rtype = [1, 1, 1, 1, 2, 2];
n_tasks = 50;
modes =  [{1, 2, 3}, {4, 5, 6}, {7, 8, 9}, {10, 11, 12}, {13, 14, 15}, {16, 17, 18}, {19, 20, 21}, {22, 23, 24}, {25, 26, 27}, {28, 29, 30}, {31, 32, 33}, {34, 35, 36}, {37, 38, 39}, {40, 41, 42}, {43, 44, 45}, {46, 47, 48}, {49, 50, 51}, {52, 53, 54}, {55, 56, 57}, {58, 59, 60}, {61, 62, 63}, {64, 65, 66}, {67, 68, 69}, {70, 71, 72}, {73, 74, 75}, {76, 77, 78}, {79, 80, 81}, {82, 83, 84}, {85, 86, 87}, {88, 89, 90}, {91, 92, 93}, {94, 95, 96}, {97, 98, 99}, {100, 101, 102}, {103, 104, 105}, {106, 107, 108}, {109, 110, 111}, {112, 113, 114}, {115, 116, 117}, {118, 119, 120}, {121, 122, 123}, {124, 125, 126}, {127, 128, 129}, {130, 131, 132}, {133, 134, 135}, {136, 137, 138}, {139, 140, 141}, {142, 143, 144}, {145, 146, 147}, {148, 149, 150}];
succ =  [{49, 39, 37, 33, 31, 27, 21, 14, 11}, {49, 40, 37, 31, 29, 24, 19, 15}, {40, 35, 32, 4}, {49, 45, 39, 37, 36, 30, 14}, {50, 49, 48, 47, 45, 44, 43, 38, 36, 35, 30, 28}, {48, 47, 46, 40, 38, 37, 35, 32, 23}, {48, 46, 44, 43, 40, 31, 29, 28}, {49, 39, 38, 30, 14}, {49, 48, 45, 44, 43, 40, 36, 28, 26}, {50, 49, 48, 46, 44, 43, 35, 32, 31}, {50, 47, 43, 36, 34, 29}, {49, 46, 45, 43, 37, 28}, {47, 46, 44, 43, 42, 38, 33}, {48, 47, 46, 44, 43, 28}, {48, 46, 45, 43, 36, 28}, {47, 46, 45, 43, 35, 34}, {46, 45, 43, 33, 30}, {48, 46, 44, 41, 29}, {47, 45, 44, 43, 38, 34}, {47, 45, 35, 34, 32}, {47, 46, 43, 28}, {49, 44, 43, 38, 34}, {49, 44, 43, 34}, {48, 46, 45, 43}, {50, 42, 37}, {39, 34}, {45, 44, 43}, {42, 34}, {45, 35}, {42, 34}, {47, 36}, {42, 41}, {34}, {41}, {42}, {41}, {44}, {41}, {42}, {42}, {}, {}, {}, {}, {}, {}, {}, {}, {}, {}];
n_opt = 150;
dur = [5, 7, 25, 9, 10, 26, 10, 20, 30, 6, 9, 14, 18, 25, 26, 6, 12, 27, 3, 18, 27, 5, 22, 23, 2, 15, 16, 2, 9, 19, 13, 15, 17, 11, 23, 28, 2, 11, 24, 24, 27, 30, 1, 4, 26, 9, 23, 27, 4, 6, 7, 7, 8, 26, 2, 4, 16, 14, 28, 30, 11, 27, 30, 9, 24, 25, 16, 20, 28, 11, 21, 26, 23, 25, 26, 2, 3, 5, 11, 12, 15, 5, 26, 29, 4, 15, 22, 3, 4, 8, 8, 18, 19, 8, 14, 19, 7, 13, 18, 9, 24, 29, 1, 8, 22, 1, 10, 19, 3, 13, 30, 14, 18, 29, 6, 7, 10, 8, 14, 30, 14, 17, 27, 2, 20, 25, 7, 13, 25, 23, 25, 28, 3, 6, 30, 3, 6, 15, 1, 9, 12, 3, 10, 17, 6, 9, 14, 1, 12, 20];
rreq = [|12, 10, 6, 20, 14, 12, 24, 20, 15, 7, 5, 2, 3, 3, 3, 24, 11, 7, 22, 21, 13, 13, 13, 9, 23, 20, 11, 27, 22, 21, 18, 17, 13, 14, 8, 5, 17, 14, 8, 24, 14, 11, 21, 21, 18, 16, 15, 9, 19, 10, 7, 18, 18, 18, 24, 22, 21, 21, 14, 10, 15, 12, 11, 25, 23, 22, 16, 15, 15, 8, 8, 8, 23, 21, 21, 17, 14, 11, 23, 11, 4, 17, 12, 6, 28, 19, 6, 27, 13, 7, 27, 18, 15, 26, 26, 23, 14, 10, 9, 28, 28, 26, 1, 1, 1, 25, 16, 15, 26, 26, 25, 14, 5, 4, 8, 7, 4, 16, 12, 6, 18, 14, 11, 29, 28, 28, 30, 26, 24, 17, 14, 11, 24, 19, 17, 12, 11, 11, 23, 21, 16, 15, 12, 8, 25, 17, 16, 13, 9, 6
 |19, 10, 4, 19, 17, 15, 21, 21, 19, 11, 11, 10, 13, 11, 8, 19, 18, 17, 24, 18, 10, 26, 24, 16, 21, 19, 17, 21, 18, 12, 10, 7, 7, 20, 14, 9, 22, 17, 15, 23, 23, 22, 17, 10, 2, 8, 6, 3, 23, 21, 16, 20, 19, 19, 14, 12, 8, 5, 3, 2, 19, 14, 5, 25, 22, 19, 27, 23, 20, 28, 22, 12, 18, 12, 11, 12, 10, 6, 7, 6, 5, 11, 5, 5, 24, 20, 17, 26, 24, 21, 18, 17, 3, 16, 11, 6, 22, 19, 15, 5, 5, 5, 21, 14, 12, 24, 19, 11, 28, 17, 11, 12, 9, 6, 12, 11, 11, 30, 29, 29, 19, 12, 5, 25, 24, 19, 11, 10, 10, 16, 13, 13, 15, 10, 3, 14, 12, 10, 30, 30, 30, 20, 15, 12, 7, 3, 1, 15, 14, 14
 |16, 12, 7, 27, 22, 12, 18, 15, 13, 11, 9, 7, 25, 21, 19, 25, 21, 19, 14, 11, 10, 18, 18, 18, 1, 1, 1, 22, 21, 5, 21, 19, 15, 8, 6, 4, 11, 9, 1, 25, 13, 8, 22, 17, 16, 13, 12, 12, 12, 10, 8, 16, 11, 11, 19, 14, 11, 10, 9, 8, 21, 17, 13, 25, 19, 10, 24, 19, 18, 23, 22, 21, 25, 19, 3, 27, 21, 5, 10, 9, 5, 21, 16, 12, 28, 28, 27, 16, 14, 13, 18, 14, 9, 24, 21, 16, 12, 8, 8, 14, 8, 3, 17, 16, 12, 4, 3, 3, 16, 10, 6, 16, 15, 14, 23, 18, 14, 10, 10, 6, 18, 15, 5, 26, 25, 25, 23, 14, 13, 14, 10, 7, 25, 23, 21, 27, 21, 17, 24, 22, 18, 26, 13, 8, 22, 20, 17, 28, 19, 17
 |5, 5, 4, 13, 11, 11, 13, 12, 12, 25, 24, 21, 26, 24, 24, 10, 9, 3, 22, 19, 18, 21, 21, 21, 17, 11, 5, 19, 14, 12, 20, 16, 15, 10, 9, 7, 27, 17, 11, 19, 18, 15, 23, 22, 22, 26, 23, 23, 24, 12, 12, 10, 4, 1, 28, 25, 24, 18, 14, 9, 22, 17, 11, 8, 8, 8, 11, 5, 1, 27, 16, 10, 7, 5, 3, 23, 11, 4, 27, 23, 17, 26, 22, 20, 28, 27, 27, 25, 24, 24, 17, 8, 6, 25, 24, 23, 30, 27, 26, 2, 2, 2, 12, 12, 12, 25, 13, 7, 23, 14, 9, 14, 13, 13, 7, 6, 3, 21, 21, 20, 26, 17, 16, 9, 5, 2, 16, 13, 13, 15, 14, 13, 18, 15, 15, 16, 10, 2, 6, 4, 1, 22, 20, 18, 15, 14, 14, 21, 17, 10
 |20, 18, 14, 24, 19, 18, 26, 14, 9, 10, 8, 7, 17, 15, 15, 19, 19, 19, 12, 12, 12, 24, 14, 7, 28, 24, 22, 15, 9, 1, 12, 10, 6, 29, 25, 23, 19, 16, 15, 15, 12, 8, 12, 12, 9, 9, 9, 8, 7, 6, 6, 26, 21, 18, 23, 13, 11, 24, 20, 13, 22, 16, 10, 16, 8, 5, 25, 25, 23, 14, 11, 8, 22, 20, 19, 24, 17, 5, 16, 16, 16, 16, 11, 6, 12, 11, 11, 13, 10, 1, 19, 19, 19, 15, 10, 8, 17, 14, 12, 18, 14, 11, 29, 14, 7, 15, 14, 8, 13, 8, 6, 23, 22, 22, 20, 15, 14, 23, 16, 12, 21, 11, 1, 18, 12, 11, 25, 25, 25, 15, 8, 5, 20, 20, 20, 12, 10, 6, 8, 4, 4, 18, 13, 10, 21, 17, 14, 17, 17, 17
 |18, 16, 13, 6, 4, 3, 21, 19, 19, 13, 10, 7, 14, 13, 12, 25, 18, 17, 17, 11, 11, 22, 16, 9, 16, 10, 5, 22, 20, 20, 23, 18, 15, 21, 19, 16, 23, 17, 11, 18, 13, 11, 19, 11, 10, 13, 12, 7, 21, 16, 6, 24, 17, 14, 27, 26, 24, 23, 19, 16, 23, 22, 21, 16, 13, 11, 10, 9, 4, 2, 2, 2, 15, 12, 8, 24, 21, 3, 23, 23, 22, 17, 15, 15, 13, 11, 10, 28, 26, 23, 19, 11, 4, 25, 10, 3, 16, 15, 15, 18, 8, 6, 16, 12, 9, 11, 8, 2, 11, 11, 9, 15, 15, 12, 30, 23, 21, 20, 19, 19, 23, 21, 18, 27, 26, 25, 23, 16, 11, 24, 23, 22, 7, 6, 5, 15, 9, 5, 25, 24, 23, 24, 23, 21, 21, 17, 13, 14, 10, 8|];